80 92
25 14
17 37
49 56
23 89
24 14
89 54
80 82
27 77
83 82
75 61
49 49
89 73
4 52
70 73
12 120
31 98
80 73
100 84
21 53
61 144
94 96
38 70
18 86
57 92
24 92
13 112
45 85
57 128
27 146
17 139
21 165
29 114
39 115
19 161
44 109
47 145
83 136
25 116
64 162
53 178
70 131
65 181
59 138
19 199
69 119
96 135
79 145
99 122
87 145
87 199
26 206
100 170
30 223
44 221
102 175
47 197
39 170
97 132
55 176
77 185
51 240
58 215
30 153
99 230
71 167
39 182
60 249
75 214
46 178
42 266
22 240
57 238
69 272
78 209
47 236
101 197
22 201
80 233
12 230
91 202
71 216
14 283
32 257
73 227
43 222
64 232
42 296
103 284
68 277
99 284
52 291
86 313
60 285
61 252
77 272
89 309
99 286
27 303
91 321
